8
0 513 68 47 132 795 348 39
513 0 618 114 9 360 174 627
68 618 0 45 136 88 85 75
47 114 45 0 442 574 8 401
132 9 136 442 0 22 50 621
795 360 88 574 22 0 123 415
348 174 85 8 50 123 0 84
39 627 75 401 621 415 84 0